\ Model RobustPlantingPlan
\ LP format - for model browsing. Use MPS format to capture full model detail.
Maximize
  800.9221179999757 Fsjmk[0,0,0,0] + 800.9221179999757 Fsjmk[0,0,0,1]
   + 1029.877203836192 Fsjmk[0,0,1,0] + 1029.877203836192 Fsjmk[0,0,1,1]
   + 1004.98984142376 Fsjmk[0,0,2,0] + 1004.98984142376 Fsjmk[0,0,2,1]
   + 1040.81481192966 Fsjmk[0,0,3,0] + 1040.81481192966 Fsjmk[0,0,3,1]
   + 957.9135179577712 Fsjmk[0,0,4,0] + 957.9135179577712 Fsjmk[0,0,4,1]
   + 1008.973072690131 Fsjmk[0,1,0,0] + 1008.973072690131 Fsjmk[0,1,0,1]
   + 1022.225990173871 Fsjmk[0,1,1,0] + 1022.225990173871 Fsjmk[0,1,1,1]
   + 906.4469544529645 Fsjmk[0,1,2,0] + 906.4469544529645 Fsjmk[0,1,2,1]
   + 805.928432397842 Fsjmk[0,1,3,0] + 805.928432397842 Fsjmk[0,1,3,1]
   + 1174.025346093793 Fsjmk[0,1,4,0] + 1174.025346093793 Fsjmk[0,1,4,1]
   + 1011.485387954452 Fsjmk[0,2,0,0] + 1011.485387954452 Fsjmk[0,2,0,1]
   + 1043.518296756137 Fsjmk[0,2,1,0] + 1043.518296756137 Fsjmk[0,2,1,1]
   + 1028.738765186762 Fsjmk[0,2,2,0] + 1028.738765186762 Fsjmk[0,2,2,1]
   + 1144.483571001809 Fsjmk[0,2,3,0] + 1144.483571001809 Fsjmk[0,2,3,1]
   + 963.5913224218521 Fsjmk[0,2,4,0] + 963.5913224218521 Fsjmk[0,2,4,1]
   + 941.4184817580305 Fsjmk[0,3,0,0] + 941.4184817580305 Fsjmk[0,3,0,1]
   + 995.4251900900377 Fsjmk[0,3,1,0] + 995.4251900900377 Fsjmk[0,3,1,1]
   + 1036.042726711402 Fsjmk[0,3,2,0] + 1036.042726711402 Fsjmk[0,3,2,1]
   + 1019.286086320953 Fsjmk[0,3,3,0] + 1019.286086320953 Fsjmk[0,3,3,1]
   + 1134.395441958493 Fsjmk[0,3,4,0] + 1134.395441958493 Fsjmk[0,3,4,1]
   - 4435.691713482341 Hsij[0,0,0] - 4405.076156048814 Hsij[0,0,1]
   - 4327.994370520418 Hsij[0,0,2] - 4460.716233863491 Hsij[0,0,3]
   - 4397.015318217912 Hsij[0,1,0] - 4371.067578704249 Hsij[0,1,1]
   - 4375.192610823743 Hsij[0,1,2] - 4342.101158086193 Hsij[0,1,3]
   - 4411.343901454208 Hsij[0,2,0] - 4333.710481442361 Hsij[0,2,1]
   - 4361.97112672757 Hsij[0,2,2] - 4308.20717438958 Hsij[0,2,3]
   - 4366.396323412295 Hsij[0,3,0] - 4351.454593390125 Hsij[0,3,1]
   - 4379.604675129448 Hsij[0,3,2] - 4281.987893980652 Hsij[0,3,3]
   - 4325.34865351121 Hsij[0,4,0] - 4339.466496130447 Hsij[0,4,1]
   - 4415.876020841994 Hsij[0,4,2] - 4335.512003037303 Hsij[0,4,3]
   - 4352.060369552128 Hsij[0,5,0] - 4413.629209464006 Hsij[0,5,1]
   - 4416.773767116684 Hsij[0,5,2] - 4374.640141654276 Hsij[0,5,3]
   - 4356.493031489486 Hsij[0,6,0] - 4303.094906887635 Hsij[0,6,1]
   - 4410.703043758313 Hsij[0,6,2] - 4427.75555598199 Hsij[0,6,3]
   - 4325.225999020753 Hsij[0,7,0] - 4357.62931417111 Hsij[0,7,1]
   - 4329.881009034531 Hsij[0,7,2] - 4302.76767409681 Hsij[0,7,3]
   - 4377.828515779693 Hsij[0,8,0] - 4333.214944864725 Hsij[0,8,1]
   - 4316.254337628227 Hsij[0,8,2] - 4393.313443666147 Hsij[0,8,3]
   - 4265.905592095791 Hsij[0,9,0] - 4360.811082293191 Hsij[0,9,1]
   - 4348.640827909058 Hsij[0,9,2] - 4343.9328826317 Hsij[0,9,3]
   - 4341.70646490425 Hsij[0,10,0] - 4369.515732445839 Hsij[0,10,1]
   - 4306.829304932851 Hsij[0,10,2] - 4340.171624977423 Hsij[0,10,3]
   - 4278.026171656718 Hsij[0,11,0] - 4322.17206525952 Hsij[0,11,1]
   - 4329.145238647206 Hsij[0,11,2] - 4363.544312392541 Hsij[0,11,3]
   - 4316.243109688826 Hsij[0,12,0] - 4336.629630748383 Hsij[0,12,1]
   - 4334.05620856854 Hsij[0,12,2] - 4398.70747035522 Hsij[0,12,3]
   - 4330.08037471243 Hsij[0,13,0] - 4368.50461283343 Hsij[0,13,1]
   - 4348.783253519065 Hsij[0,13,2] - 4414.205557712979 Hsij[0,13,3]
   - 4378.134934225537 Hsij[0,14,0] - 4334.151457430858 Hsij[0,14,1]
   - 4320.473183558717 Hsij[0,14,2] - 4334.617188243082 Hsij[0,14,3]
   - 4317.777485026219 Hsij[0,15,0] - 4320.636550327035 Hsij[0,15,1]
   - 4344.223884858779 Hsij[0,15,2] - 4376.961346254542 Hsij[0,15,3]
   - 4427.915828062632 Hsij[0,16,0] - 4357.438519060212 Hsij[0,16,1]
   - 4274.93329620595 Hsij[0,16,2] - 4356.988646505143 Hsij[0,16,3]
   - 4312.634138552593 Hsij[0,17,0] - 4341.020689008842 Hsij[0,17,1]
   - 4371.246551334189 Hsij[0,17,2] - 4313.532602999353 Hsij[0,17,3]
   - 4366.580622882939 Hsij[0,18,0] - 4306.895707226146 Hsij[0,18,1]
   - 4394.277782162701 Hsij[0,18,2] - 4364.85905172357 Hsij[0,18,3]
   - 4295.586449601507 Hsij[0,19,0] - 4390.24840770114 Hsij[0,19,1]
   - 4310.641802119664 Hsij[0,19,2] - 4430.200581556216 Hsij[0,19,3]
   - 4416.359564881822 Hsij[0,20,0] - 4287.119202199652 Hsij[0,20,1]
   - 4366.406486583209 Hsij[0,20,2] - 4346.930760530512 Hsij[0,20,3]
   - 4376.280947259563 Hsij[0,21,0] - 4370.538481391972 Hsij[0,21,1]
   - 4385.66640224776 Hsij[0,21,2] - 4389.477103344148 Hsij[0,21,3]
   - 4324.516704952318 Hsij[0,22,0] - 4390.783809637299 Hsij[0,22,1]
   - 4338.92454800735 Hsij[0,22,2] - 4392.351543984229 Hsij[0,22,3]
   - 4359.016800600913 Hsij[0,23,0] - 4397.834425811123 Hsij[0,23,1]
   - 4390.885518664713 Hsij[0,23,2] - 4376.377921532267 Hsij[0,23,3]
   + 918.1779038671308 Ssjk[0,0,0] + 918.1779038671308 Ssjk[0,0,1]
   + 1008.270993579791 Ssjk[0,1,0] + 1008.270993579791 Ssjk[0,1,1]
   + 870.8941544653023 Ssjk[0,2,0] + 870.8941544653023 Ssjk[0,2,1]
   + 933.8895768184151 Ssjk[0,3,0] + 933.8895768184151 Ssjk[0,3,1]
   - 1359.5 Lminus[0] + 1689 Lplus[0] - 800.9221179999757 Psmj[0,0,0]
   - 1008.973072690131 Psmj[0,0,1] - 1011.485387954452 Psmj[0,0,2]
   - 941.4184817580305 Psmj[0,0,3] - 1029.877203836192 Psmj[0,1,0]
   - 1022.225990173871 Psmj[0,1,1] - 1043.518296756137 Psmj[0,1,2]
   - 995.4251900900377 Psmj[0,1,3] - 1004.98984142376 Psmj[0,2,0]
   - 906.4469544529645 Psmj[0,2,1] - 1028.738765186762 Psmj[0,2,2]
   - 1036.042726711402 Psmj[0,2,3] - 1040.81481192966 Psmj[0,3,0]
   - 805.928432397842 Psmj[0,3,1] - 1144.483571001809 Psmj[0,3,2]
   - 1019.286086320953 Psmj[0,3,3] - 957.9135179577712 Psmj[0,4,0]
   - 1174.025346093793 Psmj[0,4,1] - 963.5913224218521 Psmj[0,4,2]
   - 1134.395441958493 Psmj[0,4,3] - 7183.978479814017 Ai[0]
   - 7183.978479814017 Ai[1] - 7183.978479814017 Ai[2]
   - 7183.978479814017 Ai[3] - 7183.978479814017 Ai[4]
   - 7183.978479814017 Ai[5] - 7183.978479814017 Ai[6]
   - 7183.978479814017 Ai[7] - 7183.978479814017 Ai[8]
   - 7183.978479814017 Ai[9] - 7183.978479814017 Ai[10]
   - 7183.978479814017 Ai[11] - 7183.978479814017 Ai[12]
   - 7183.978479814017 Ai[13] - 7183.978479814017 Ai[14]
   - 7183.978479814017 Ai[15] - 7183.978479814017 Ai[16]
   - 7183.978479814017 Ai[17] - 7183.978479814017 Ai[18]
   - 7183.978479814017 Ai[19] - 7183.978479814017 Ai[20]
   - 7183.978479814017 Ai[21] - 7183.978479814017 Ai[22]
   - 7183.978479814017 Ai[23] - 0.5 z[0]
Subject To
 Absolute_value_of_z_1_-_s__0: z[0] >= 0
 Absolute_value_of_z_2_-_s__0: z[0] >= 0
 Marketing_Constraint_-_s__0,_j__0,_k__0: - Fsjmk[0,0,0,0] - Fsjmk[0,0,1,0]
   - Fsjmk[0,0,2,0] - Fsjmk[0,0,3,0] - Fsjmk[0,0,4,0]
   + 4.097192723435078 Hsij[0,0,0] + 4.097192723435078 Hsij[0,1,0]
   + 10.4484218607871 Hsij[0,2,0] + 10.4484218607871 Hsij[0,3,0]
   + 17.7633039254003 Hsij[0,4,0] + 17.7633039254003 Hsij[0,5,0]
   + 15.09964713093868 Hsij[0,6,0] + 15.09964713093868 Hsij[0,7,0]
   + 3.244654610186577 Hsij[0,8,0] + 3.244654610186577 Hsij[0,9,0]
   + 9.35943912725519 Hsij[0,10,0] + 9.35943912725519 Hsij[0,11,0]
   + 17.99864932757988 Hsij[0,12,0] + 17.99864932757988 Hsij[0,13,0]
   + 17.30613198144684 Hsij[0,14,0] + 17.30613198144684 Hsij[0,15,0]
   + 3.602289220869126 Hsij[0,16,0] + 3.602289220869126 Hsij[0,17,0]
   + 9.843451659246096 Hsij[0,18,0] + 9.843451659246096 Hsij[0,19,0]
   + 17.93184548806387 Hsij[0,20,0] + 17.93184548806387 Hsij[0,21,0]
   + 16.33324842438572 Hsij[0,22,0] + 16.33324842438572 Hsij[0,23,0]
   - Ssjk[0,0,0] = 0
 Marketing_Constraint_-_s__0,_j__0,_k__1: - Fsjmk[0,0,0,1] - Fsjmk[0,0,1,1]
   - Fsjmk[0,0,2,1] - Fsjmk[0,0,3,1] - Fsjmk[0,0,4,1]
   + 20.21622551379017 Hsij[0,0,0] + 20.21622551379017 Hsij[0,1,0]
   + 25.77711946434807 Hsij[0,2,0] + 25.77711946434807 Hsij[0,3,0]
   + 21.91176875643845 Hsij[0,4,0] + 21.91176875643845 Hsij[0,5,0]
   + 9.313019065215693 Hsij[0,6,0] + 9.313019065215693 Hsij[0,7,0]
   + 18.34912534708234 Hsij[0,8,0] + 18.34912534708234 Hsij[0,9,0]
   + 26.4646845900367 Hsij[0,10,0] + 26.4646845900367 Hsij[0,11,0]
   + 25.4464274527938 Hsij[0,12,0] + 25.4464274527938 Hsij[0,13,0]
   + 12.23367442576802 Hsij[0,14,0] + 12.23367442576802 Hsij[0,15,0]
   + 19.2264024474229 Hsij[0,16,0] + 19.2264024474229 Hsij[0,17,0]
   + 26.26859636589046 Hsij[0,18,0] + 26.26859636589046 Hsij[0,19,0]
   + 23.92679049624859 Hsij[0,20,0] + 23.92679049624859 Hsij[0,21,0]
   + 10.89687654942132 Hsij[0,22,0] + 10.89687654942132 Hsij[0,23,0]
   - Ssjk[0,0,1] = 0
 Marketing_Constraint_-_s__0,_j__1,_k__0: - Fsjmk[0,1,0,0] - Fsjmk[0,1,1,0]
   - Fsjmk[0,1,2,0] - Fsjmk[0,1,3,0] - Fsjmk[0,1,4,0]
   + 1.204989741750202 Hsij[0,0,1] + 1.204989741750202 Hsij[0,1,1]
   + 4.097192723435078 Hsij[0,2,1] + 4.097192723435078 Hsij[0,3,1]
   + 10.4484218607871 Hsij[0,4,1] + 10.4484218607871 Hsij[0,5,1]
   + 17.7633039254003 Hsij[0,6,1] + 17.7633039254003 Hsij[0,7,1]
   + 0.8436229508198465 Hsij[0,8,1] + 0.8436229508198465 Hsij[0,9,1]
   + 3.244654610186577 Hsij[0,10,1] + 3.244654610186577 Hsij[0,11,1]
   + 9.35943912725519 Hsij[0,12,1] + 9.35943912725519 Hsij[0,13,1]
   + 17.99864932757988 Hsij[0,14,1] + 17.99864932757988 Hsij[0,15,1]
   + 0.9887147374722638 Hsij[0,16,1] + 0.9887147374722638 Hsij[0,17,1]
   + 3.602289220869126 Hsij[0,18,1] + 3.602289220869126 Hsij[0,19,1]
   + 9.843451659246096 Hsij[0,20,1] + 9.843451659246096 Hsij[0,21,1]
   + 17.93184548806387 Hsij[0,22,1] + 17.93184548806387 Hsij[0,23,1]
   - Ssjk[0,1,0] = 0
 Marketing_Constraint_-_s__0,_j__1,_k__1: - Fsjmk[0,1,0,1] - Fsjmk[0,1,1,1]
   - Fsjmk[0,1,2,1] - Fsjmk[0,1,3,1] - Fsjmk[0,1,4,1]
   + 11.89123675910573 Hsij[0,0,1] + 11.89123675910573 Hsij[0,1,1]
   + 20.21622551379017 Hsij[0,2,1] + 20.21622551379017 Hsij[0,3,1]
   + 25.77711946434807 Hsij[0,4,1] + 25.77711946434807 Hsij[0,5,1]
   + 21.91176875643845 Hsij[0,6,1] + 21.91176875643845 Hsij[0,7,1]
   + 9.541689412284608 Hsij[0,8,1] + 9.541689412284608 Hsij[0,9,1]
   + 18.34912534708234 Hsij[0,10,1] + 18.34912534708234 Hsij[0,11,1]
   + 26.4646845900367 Hsij[0,12,1] + 26.4646845900367 Hsij[0,13,1]
   + 25.4464274527938 Hsij[0,14,1] + 25.4464274527938 Hsij[0,15,1]
   + 10.55408174236127 Hsij[0,16,1] + 10.55408174236127 Hsij[0,17,1]
   + 19.2264024474229 Hsij[0,18,1] + 19.2264024474229 Hsij[0,19,1]
   + 26.26859636589046 Hsij[0,20,1] + 26.26859636589046 Hsij[0,21,1]
   + 23.92679049624859 Hsij[0,22,1] + 23.92679049624859 Hsij[0,23,1]
   - Ssjk[0,1,1] = 0
 Marketing_Constraint_-_s__0,_j__2,_k__0: - Fsjmk[0,2,0,0] - Fsjmk[0,2,1,0]
   - Fsjmk[0,2,2,0] - Fsjmk[0,2,3,0] - Fsjmk[0,2,4,0]
   + 0.2835112479660686 Hsij[0,0,2] + 0.2835112479660686 Hsij[0,1,2]
   + 1.204989741750202 Hsij[0,2,2] + 1.204989741750202 Hsij[0,3,2]
   + 4.097192723435078 Hsij[0,4,2] + 4.097192723435078 Hsij[0,5,2]
   + 10.4484218607871 Hsij[0,6,2] + 10.4484218607871 Hsij[0,7,2]
   + 0.1754762262622611 Hsij[0,8,2] + 0.1754762262622611 Hsij[0,9,2]
   + 0.8436229508198465 Hsij[0,10,2] + 0.8436229508198465 Hsij[0,11,2]
   + 3.244654610186577 Hsij[0,12,2] + 3.244654610186577 Hsij[0,13,2]
   + 9.35943912725519 Hsij[0,14,2] + 9.35943912725519 Hsij[0,15,2]
   + 0.2170968008746375 Hsij[0,16,2] + 0.2170968008746375 Hsij[0,17,2]
   + 0.9887147374722638 Hsij[0,18,2] + 0.9887147374722638 Hsij[0,19,2]
   + 3.602289220869126 Hsij[0,20,2] + 3.602289220869126 Hsij[0,21,2]
   + 9.843451659246096 Hsij[0,22,2] + 9.843451659246096 Hsij[0,23,2]
   - Ssjk[0,2,0] = 0
 Marketing_Constraint_-_s__0,_j__2,_k__1: - Fsjmk[0,2,0,1] - Fsjmk[0,2,1,1]
   - Fsjmk[0,2,2,1] - Fsjmk[0,2,3,1] - Fsjmk[0,2,4,1]
   + 5.595565267696589 Hsij[0,0,2] + 5.595565267696589 Hsij[0,1,2]
   + 11.89123675910573 Hsij[0,2,2] + 11.89123675910573 Hsij[0,3,2]
   + 20.21622551379017 Hsij[0,4,2] + 20.21622551379017 Hsij[0,5,2]
   + 25.77711946434807 Hsij[0,6,2] + 25.77711946434807 Hsij[0,7,2]
   + 3.969402796846919 Hsij[0,8,2] + 3.969402796846919 Hsij[0,9,2]
   + 9.541689412284608 Hsij[0,10,2] + 9.541689412284608 Hsij[0,11,2]
   + 18.34912534708234 Hsij[0,12,2] + 18.34912534708234 Hsij[0,13,2]
   + 26.4646845900367 Hsij[0,14,2] + 26.4646845900367 Hsij[0,15,2]
   + 4.634819924488743 Hsij[0,16,2] + 4.634819924488743 Hsij[0,17,2]
   + 10.55408174236127 Hsij[0,18,2] + 10.55408174236127 Hsij[0,19,2]
   + 19.2264024474229 Hsij[0,20,2] + 19.2264024474229 Hsij[0,21,2]
   + 26.26859636589046 Hsij[0,22,2] + 26.26859636589046 Hsij[0,23,2]
   - Ssjk[0,2,1] = 0
 Marketing_Constraint_-_s__0,_j__3,_k__0: - Fsjmk[0,3,0,0] - Fsjmk[0,3,1,0]
   - Fsjmk[0,3,2,0] - Fsjmk[0,3,3,0] - Fsjmk[0,3,4,0]
   + 0.0555873526957242 Hsij[0,0,3] + 0.0555873526957242 Hsij[0,1,3]
   + 0.2835112479660686 Hsij[0,2,3] + 0.2835112479660686 Hsij[0,3,3]
   + 1.204989741750202 Hsij[0,4,3] + 1.204989741750202 Hsij[0,5,3]
   + 4.097192723435078 Hsij[0,6,3] + 4.097192723435078 Hsij[0,7,3]
   + 0.0304163389909755 Hsij[0,8,3] + 0.0304163389909755 Hsij[0,9,3]
   + 0.1754762262622611 Hsij[0,10,3] + 0.1754762262622611 Hsij[0,11,3]
   + 0.8436229508198465 Hsij[0,12,3] + 0.8436229508198465 Hsij[0,13,3]
   + 3.244654610186577 Hsij[0,14,3] + 3.244654610186577 Hsij[0,15,3]
   + 0.0397241482331704 Hsij[0,16,3] + 0.0397241482331704 Hsij[0,17,3]
   + 0.2170968008746375 Hsij[0,18,3] + 0.2170968008746375 Hsij[0,19,3]
   + 0.9887147374722638 Hsij[0,20,3] + 0.9887147374722638 Hsij[0,21,3]
   + 3.602289220869126 Hsij[0,22,3] + 3.602289220869126 Hsij[0,23,3]
   - Ssjk[0,3,0] = 0
 Marketing_Constraint_-_s__0,_j__3,_k__1: - Fsjmk[0,3,0,1] - Fsjmk[0,3,1,1]
   - Fsjmk[0,3,2,1] - Fsjmk[0,3,3,1] - Fsjmk[0,3,4,1]
   + 2.194217423815375 Hsij[0,0,3] + 2.194217423815375 Hsij[0,1,3]
   + 5.595565267696589 Hsij[0,2,3] + 5.595565267696589 Hsij[0,3,3]
   + 11.89123675910573 Hsij[0,4,3] + 11.89123675910573 Hsij[0,5,3]
   + 20.21622551379017 Hsij[0,6,3] + 20.21622551379017 Hsij[0,7,3]
   + 1.376080437018016 Hsij[0,8,3] + 1.376080437018016 Hsij[0,9,3]
   + 3.969402796846919 Hsij[0,10,3] + 3.969402796846919 Hsij[0,11,3]
   + 9.541689412284608 Hsij[0,12,3] + 9.541689412284608 Hsij[0,13,3]
   + 18.34912534708234 Hsij[0,14,3] + 18.34912534708234 Hsij[0,15,3]
   + 1.696149118482489 Hsij[0,16,3] + 1.696149118482489 Hsij[0,17,3]
   + 4.634819924488743 Hsij[0,18,3] + 4.634819924488743 Hsij[0,19,3]
   + 10.55408174236127 Hsij[0,20,3] + 10.55408174236127 Hsij[0,21,3]
   + 19.2264024474229 Hsij[0,22,3] + 19.2264024474229 Hsij[0,23,3]
   - Ssjk[0,3,1] = 0
 Vu_cumprà_Constraint_-_s__0,_j__0,_m_0,_k__0: Fsjmk[0,0,0,0] = 0
 Vu_cumprà_Constraint_-_s__0,_j__0,_m_1,_k__0: Fsjmk[0,0,1,0] = 0
 Vu_cumprà_Constraint_-_s__0,_j__0,_m_2,_k__1: Fsjmk[0,0,2,1] = 0
 Vu_cumprà_Constraint_-_s__0,_j__0,_m_3,_k__0: Fsjmk[0,0,3,0] = 0
 Vu_cumprà_Constraint_-_s__0,_j__0,_m_4,_k__0: Fsjmk[0,0,4,0] = 0
 Vu_cumprà_Constraint_-_s__0,_j__1,_m_0,_k__0: Fsjmk[0,1,0,0] = 0
 Vu_cumprà_Constraint_-_s__0,_j__1,_m_1,_k__0: Fsjmk[0,1,1,0] = 0
 Vu_cumprà_Constraint_-_s__0,_j__1,_m_2,_k__1: Fsjmk[0,1,2,1] = 0
 Vu_cumprà_Constraint_-_s__0,_j__1,_m_3,_k__0: Fsjmk[0,1,3,0] = 0
 Vu_cumprà_Constraint_-_s__0,_j__1,_m_4,_k__0: Fsjmk[0,1,4,0] = 0
 Vu_cumprà_Constraint_-_s__0,_j__2,_m_0,_k__0: Fsjmk[0,2,0,0] = 0
 Vu_cumprà_Constraint_-_s__0,_j__2,_m_1,_k__0: Fsjmk[0,2,1,0] = 0
 Vu_cumprà_Constraint_-_s__0,_j__2,_m_2,_k__1: Fsjmk[0,2,2,1] = 0
 Vu_cumprà_Constraint_-_s__0,_j__2,_m_3,_k__0: Fsjmk[0,2,3,0] = 0
 Vu_cumprà_Constraint_-_s__0,_j__2,_m_4,_k__0: Fsjmk[0,2,4,0] = 0
 Vu_cumprà_Constraint_-_s__0,_j__3,_m_0,_k__0: Fsjmk[0,3,0,0] = 0
 Vu_cumprà_Constraint_-_s__0,_j__3,_m_1,_k__0: Fsjmk[0,3,1,0] = 0
 Vu_cumprà_Constraint_-_s__0,_j__3,_m_2,_k__1: Fsjmk[0,3,2,1] = 0
 Vu_cumprà_Constraint_-_s__0,_j__3,_m_3,_k__0: Fsjmk[0,3,3,0] = 0
 Vu_cumprà_Constraint_-_s__0,_j__3,_m_4,_k__0: Fsjmk[0,3,4,0] = 0
 Demand_Constraint_-_s__0,_j__0,_m__0: Fsjmk[0,0,0,1] + Psmj[0,0,0]
   = 100.0616294249995
 Demand_Constraint_-_s__0,_j__0,_m__1: Fsjmk[0,0,1,1] + Psmj[0,1,0]
   = 101.8670717456721
 Demand_Constraint_-_s__0,_j__0,_m__2: Fsjmk[0,0,2,0] + Psmj[0,2,0]
   = 47.84610056722413
 Demand_Constraint_-_s__0,_j__0,_m__3: Fsjmk[0,0,3,1] + Psmj[0,3,0]
   = 38.99296191769563
 Demand_Constraint_-_s__0,_j__0,_m__4: Fsjmk[0,0,4,1] + Psmj[0,4,0]
   = 145.5243695025857
 Demand_Constraint_-_s__0,_j__1,_m__0: Fsjmk[0,1,0,1] + Psmj[0,0,1]
   = 65.34439501213851
 Demand_Constraint_-_s__0,_j__1,_m__1: Fsjmk[0,1,1,1] + Psmj[0,1,1]
   = 136.0785581684336
 Demand_Constraint_-_s__0,_j__1,_m__2: Fsjmk[0,1,2,0] + Psmj[0,2,1]
   = 62.54247488925872
 Demand_Constraint_-_s__0,_j__1,_m__3: Fsjmk[0,1,3,1] + Psmj[0,3,1]
   = 153.3479384468015
 Demand_Constraint_-_s__0,_j__1,_m__4: Fsjmk[0,1,4,1] + Psmj[0,4,1]
   = 132.1370989235073
 Demand_Constraint_-_s__0,_j__2,_m__0: Fsjmk[0,2,0,1] + Psmj[0,0,2]
   = 165.5337927484073
 Demand_Constraint_-_s__0,_j__2,_m__1: Fsjmk[0,2,1,1] + Psmj[0,1,2]
   = 55.30538545409652
 Demand_Constraint_-_s__0,_j__2,_m__2: Fsjmk[0,2,2,0] + Psmj[0,2,2]
   = 92.68049839223809
 Demand_Constraint_-_s__0,_j__2,_m__3: Fsjmk[0,2,3,1] + Psmj[0,3,2]
   = 165.2251361225803
 Demand_Constraint_-_s__0,_j__2,_m__4: Fsjmk[0,2,4,1] + Psmj[0,4,2]
   = 94.44198349488524
 Demand_Constraint_-_s__0,_j__3,_m__0: Fsjmk[0,3,0,1] + Psmj[0,0,3]
   = 91.56242433390312
 Demand_Constraint_-_s__0,_j__3,_m__1: Fsjmk[0,3,1,1] + Psmj[0,1,3]
   = 129.3201917800725
 Demand_Constraint_-_s__0,_j__3,_m__2: Fsjmk[0,3,2,0] + Psmj[0,2,3]
   = 121.1600296890529
 Demand_Constraint_-_s__0,_j__3,_m__3: Fsjmk[0,3,3,1] + Psmj[0,3,3]
   = 145.198227219448
 Demand_Constraint_-_s__0,_j__3,_m__4: Fsjmk[0,3,4,1] + Psmj[0,4,3]
   = 66.25778244054462
 _Sell_on_Open_Market_-_s__0,_j__0: Ssjk[0,0,0] + Ssjk[0,0,1]
   <= 108.5730332895443
 _Sell_on_Open_Market_-_s__0,_j__1: Ssjk[0,1,0] + Ssjk[0,1,1]
   <= 137.3626163600349
 _Sell_on_Open_Market_-_s__0,_j__2: Ssjk[0,2,0] + Ssjk[0,2,1]
   <= 143.2966990530519
 _Sell_on_Open_Market_-_s__0,_j__3: Ssjk[0,3,0] + Ssjk[0,3,1]
   <= 138.3746638657553
 Land_Use_Constraint_-_1: - Lminus[0] + Lplus[0] + Ai[0] + Ai[1] + Ai[2]
   + Ai[3] + Ai[4] + Ai[5] + Ai[6] + Ai[7] + Ai[8] + Ai[9] + Ai[10]
   + Ai[11] + Ai[12] + Ai[13] + Ai[14] + Ai[15] + Ai[16] + Ai[17] + Ai[18]
   + Ai[19] + Ai[20] + Ai[21] + Ai[22] + Ai[23] = 10000
 Land_Use_Constraint_-_2_-_s__0,_i__0: - Hsij[0,0,0] - Hsij[0,0,1]
   - Hsij[0,0,2] - Hsij[0,0,3] + Ai[0] = 0
 Land_Use_Constraint_-_2_-_s__0,_i__1: - Hsij[0,1,0] - Hsij[0,1,1]
   - Hsij[0,1,2] - Hsij[0,1,3] + Ai[1] = 0
 Land_Use_Constraint_-_2_-_s__0,_i__2: - Hsij[0,2,0] - Hsij[0,2,1]
   - Hsij[0,2,2] - Hsij[0,2,3] + Ai[2] = 0
 Land_Use_Constraint_-_2_-_s__0,_i__3: - Hsij[0,3,0] - Hsij[0,3,1]
   - Hsij[0,3,2] - Hsij[0,3,3] + Ai[3] = 0
 Land_Use_Constraint_-_2_-_s__0,_i__4: - Hsij[0,4,0] - Hsij[0,4,1]
   - Hsij[0,4,2] - Hsij[0,4,3] + Ai[4] = 0
 Land_Use_Constraint_-_2_-_s__0,_i__5: - Hsij[0,5,0] - Hsij[0,5,1]
   - Hsij[0,5,2] - Hsij[0,5,3] + Ai[5] = 0
 Land_Use_Constraint_-_2_-_s__0,_i__6: - Hsij[0,6,0] - Hsij[0,6,1]
   - Hsij[0,6,2] - Hsij[0,6,3] + Ai[6] = 0
 Land_Use_Constraint_-_2_-_s__0,_i__7: - Hsij[0,7,0] - Hsij[0,7,1]
   - Hsij[0,7,2] - Hsij[0,7,3] + Ai[7] = 0
 Land_Use_Constraint_-_2_-_s__0,_i__8: - Hsij[0,8,0] - Hsij[0,8,1]
   - Hsij[0,8,2] - Hsij[0,8,3] + Ai[8] = 0
 Land_Use_Constraint_-_2_-_s__0,_i__9: - Hsij[0,9,0] - Hsij[0,9,1]
   - Hsij[0,9,2] - Hsij[0,9,3] + Ai[9] = 0
 Land_Use_Constraint_-_2_-_s__0,_i__10: - Hsij[0,10,0] - Hsij[0,10,1]
   - Hsij[0,10,2] - Hsij[0,10,3] + Ai[10] = 0
 Land_Use_Constraint_-_2_-_s__0,_i__11: - Hsij[0,11,0] - Hsij[0,11,1]
   - Hsij[0,11,2] - Hsij[0,11,3] + Ai[11] = 0
 Land_Use_Constraint_-_2_-_s__0,_i__12: - Hsij[0,12,0] - Hsij[0,12,1]
   - Hsij[0,12,2] - Hsij[0,12,3] + Ai[12] = 0
 Land_Use_Constraint_-_2_-_s__0,_i__13: - Hsij[0,13,0] - Hsij[0,13,1]
   - Hsij[0,13,2] - Hsij[0,13,3] + Ai[13] = 0
 Land_Use_Constraint_-_2_-_s__0,_i__14: - Hsij[0,14,0] - Hsij[0,14,1]
   - Hsij[0,14,2] - Hsij[0,14,3] + Ai[14] = 0
 Land_Use_Constraint_-_2_-_s__0,_i__15: - Hsij[0,15,0] - Hsij[0,15,1]
   - Hsij[0,15,2] - Hsij[0,15,3] + Ai[15] = 0
 Land_Use_Constraint_-_2_-_s__0,_i__16: - Hsij[0,16,0] - Hsij[0,16,1]
   - Hsij[0,16,2] - Hsij[0,16,3] + Ai[16] = 0
 Land_Use_Constraint_-_2_-_s__0,_i__17: - Hsij[0,17,0] - Hsij[0,17,1]
   - Hsij[0,17,2] - Hsij[0,17,3] + Ai[17] = 0
 Land_Use_Constraint_-_2_-_s__0,_i__18: - Hsij[0,18,0] - Hsij[0,18,1]
   - Hsij[0,18,2] - Hsij[0,18,3] + Ai[18] = 0
 Land_Use_Constraint_-_2_-_s__0,_i__19: - Hsij[0,19,0] - Hsij[0,19,1]
   - Hsij[0,19,2] - Hsij[0,19,3] + Ai[19] = 0
 Land_Use_Constraint_-_2_-_s__0,_i__20: - Hsij[0,20,0] - Hsij[0,20,1]
   - Hsij[0,20,2] - Hsij[0,20,3] + Ai[20] = 0
 Land_Use_Constraint_-_2_-_s__0,_i__21: - Hsij[0,21,0] - Hsij[0,21,1]
   - Hsij[0,21,2] - Hsij[0,21,3] + Ai[21] = 0
 Land_Use_Constraint_-_2_-_s__0,_i__22: - Hsij[0,22,0] - Hsij[0,22,1]
   - Hsij[0,22,2] - Hsij[0,22,3] + Ai[22] = 0
 Land_Use_Constraint_-_2_-_s__0,_i__23: - Hsij[0,23,0] - Hsij[0,23,1]
   - Hsij[0,23,2] - Hsij[0,23,3] + Ai[23] = 0
 Disease_Constraint_-_s__0,_j__0,_q__0: 24.31341823722525 Hsij[0,0,0]
   + 36.22554132513518 Hsij[0,2,0] + 36.22554132513518 Hsij[0,3,0]
   + 24.41266619615437 Hsij[0,6,0] + 24.41266619615437 Hsij[0,7,0]
   + 21.59377995726892 Hsij[0,9,0] + 35.8241237172919 Hsij[0,10,0]
   + 43.44507678037368 Hsij[0,12,0] + 43.44507678037368 Hsij[0,13,0]
   + 29.53980640721486 Hsij[0,14,0] + 29.53980640721486 Hsij[0,15,0]
   + 22.82869166829203 Hsij[0,16,0] + 36.11204802513656 Hsij[0,18,0]
   + 27.23012497380704 Hsij[0,23,0] <= 308.3436744028243
 Disease_Constraint_-_s__0,_j__1,_q__0: 13.09622650085594 Hsij[0,0,1]
   + 24.31341823722525 Hsij[0,2,1] + 24.31341823722525 Hsij[0,3,1]
   + 39.67507268183875 Hsij[0,6,1] + 39.67507268183875 Hsij[0,7,1]
   + 10.38531236310445 Hsij[0,9,1] + 21.59377995726892 Hsij[0,10,1]
   + 35.8241237172919 Hsij[0,12,1] + 35.8241237172919 Hsij[0,13,1]
   + 43.44507678037368 Hsij[0,14,1] + 43.44507678037368 Hsij[0,15,1]
   + 11.54279647983354 Hsij[0,16,1] + 22.82869166829203 Hsij[0,18,1]
   + 41.85863598431246 Hsij[0,23,1] <= 390.1050985753154
 Disease_Constraint_-_s__0,_j__2,_q__0: 5.879076515662658 Hsij[0,0,2]
   + 13.09622650085594 Hsij[0,2,2] + 13.09622650085594 Hsij[0,3,2]
   + 36.22554132513518 Hsij[0,6,2] + 36.22554132513518 Hsij[0,7,2]
   + 4.14487902310918 Hsij[0,9,2] + 10.38531236310445 Hsij[0,10,2]
   + 21.59377995726892 Hsij[0,12,2] + 21.59377995726892 Hsij[0,13,2]
   + 35.8241237172919 Hsij[0,14,2] + 35.8241237172919 Hsij[0,15,2]
   + 4.85191672536338 Hsij[0,16,2] + 11.54279647983354 Hsij[0,18,2]
   + 36.11204802513656 Hsij[0,23,2] <= 406.9576890053486
 Disease_Constraint_-_s__0,_j__3,_q__0: 2.249804776511099 Hsij[0,0,3]
   + 5.879076515662658 Hsij[0,2,3] + 5.879076515662658 Hsij[0,3,3]
   + 24.31341823722525 Hsij[0,6,3] + 24.31341823722525 Hsij[0,7,3]
   + 1.406496776008992 Hsij[0,9,3] + 4.14487902310918 Hsij[0,10,3]
   + 10.38531236310445 Hsij[0,12,3] + 10.38531236310445 Hsij[0,13,3]
   + 21.59377995726892 Hsij[0,14,3] + 21.59377995726892 Hsij[0,15,3]
   + 1.735873266715659 Hsij[0,16,3] + 4.85191672536338 Hsij[0,18,3]
   + 22.82869166829203 Hsij[0,23,3] <= 392.9792786284031
 Individual_Variety_Limit_-_v__0: 0.6 Ai[0] + 0.6 Ai[1] + 0.6 Ai[2]
   + 0.6 Ai[3] + 0.6 Ai[4] + 0.6 Ai[5] + 0.6 Ai[6] + 0.6 Ai[7] - 0.4 Ai[8]
   - 0.4 Ai[9] - 0.4 Ai[10] - 0.4 Ai[11] - 0.4 Ai[12] - 0.4 Ai[13]
   - 0.4 Ai[14] - 0.4 Ai[15] - 0.4 Ai[16] - 0.4 Ai[17] - 0.4 Ai[18]
   - 0.4 Ai[19] - 0.4 Ai[20] - 0.4 Ai[21] - 0.4 Ai[22] - 0.4 Ai[23] <= 0
 Individual_Variety_Limit_-_v__1: - 0.4 Ai[0] - 0.4 Ai[1] - 0.4 Ai[2]
   - 0.4 Ai[3] - 0.4 Ai[4] - 0.4 Ai[5] - 0.4 Ai[6] - 0.4 Ai[7] + 0.6 Ai[8]
   + 0.6 Ai[9] + 0.6 Ai[10] + 0.6 Ai[11] + 0.6 Ai[12] + 0.6 Ai[13]
   + 0.6 Ai[14] + 0.6 Ai[15] - 0.4 Ai[16] - 0.4 Ai[17] - 0.4 Ai[18]
   - 0.4 Ai[19] - 0.4 Ai[20] - 0.4 Ai[21] - 0.4 Ai[22] - 0.4 Ai[23] <= 0
 Individual_Variety_Limit_-_v__2: - 0.4 Ai[0] - 0.4 Ai[1] - 0.4 Ai[2]
   - 0.4 Ai[3] - 0.4 Ai[4] - 0.4 Ai[5] - 0.4 Ai[6] - 0.4 Ai[7] - 0.4 Ai[8]
   - 0.4 Ai[9] - 0.4 Ai[10] - 0.4 Ai[11] - 0.4 Ai[12] - 0.4 Ai[13]
   - 0.4 Ai[14] - 0.4 Ai[15] + 0.6 Ai[16] + 0.6 Ai[17] + 0.6 Ai[18]
   + 0.6 Ai[19] + 0.6 Ai[20] + 0.6 Ai[21] + 0.6 Ai[22] + 0.6 Ai[23] <= 0
 Individual_Crop_Limit_-_i__0: 0.8 Ai[0] - 0.2 Ai[1] - 0.2 Ai[2]
   - 0.2 Ai[3] - 0.2 Ai[4] - 0.2 Ai[5] - 0.2 Ai[6] - 0.2 Ai[7] - 0.2 Ai[8]
   - 0.2 Ai[9] - 0.2 Ai[10] - 0.2 Ai[11] - 0.2 Ai[12] - 0.2 Ai[13]
   - 0.2 Ai[14] - 0.2 Ai[15] - 0.2 Ai[16] - 0.2 Ai[17] - 0.2 Ai[18]
   - 0.2 Ai[19] - 0.2 Ai[20] - 0.2 Ai[21] - 0.2 Ai[22] - 0.2 Ai[23] <= 0
 Individual_Crop_Limit_-_i__1: - 0.2 Ai[0] + 0.8 Ai[1] - 0.2 Ai[2]
   - 0.2 Ai[3] - 0.2 Ai[4] - 0.2 Ai[5] - 0.2 Ai[6] - 0.2 Ai[7] - 0.2 Ai[8]
   - 0.2 Ai[9] - 0.2 Ai[10] - 0.2 Ai[11] - 0.2 Ai[12] - 0.2 Ai[13]
   - 0.2 Ai[14] - 0.2 Ai[15] - 0.2 Ai[16] - 0.2 Ai[17] - 0.2 Ai[18]
   - 0.2 Ai[19] - 0.2 Ai[20] - 0.2 Ai[21] - 0.2 Ai[22] - 0.2 Ai[23] <= 0
 Individual_Crop_Limit_-_i__2: - 0.2 Ai[0] - 0.2 Ai[1] + 0.8 Ai[2]
   - 0.2 Ai[3] - 0.2 Ai[4] - 0.2 Ai[5] - 0.2 Ai[6] - 0.2 Ai[7] - 0.2 Ai[8]
   - 0.2 Ai[9] - 0.2 Ai[10] - 0.2 Ai[11] - 0.2 Ai[12] - 0.2 Ai[13]
   - 0.2 Ai[14] - 0.2 Ai[15] - 0.2 Ai[16] - 0.2 Ai[17] - 0.2 Ai[18]
   - 0.2 Ai[19] - 0.2 Ai[20] - 0.2 Ai[21] - 0.2 Ai[22] - 0.2 Ai[23] <= 0
 Individual_Crop_Limit_-_i__3: - 0.2 Ai[0] - 0.2 Ai[1] - 0.2 Ai[2]
   + 0.8 Ai[3] - 0.2 Ai[4] - 0.2 Ai[5] - 0.2 Ai[6] - 0.2 Ai[7] - 0.2 Ai[8]
   - 0.2 Ai[9] - 0.2 Ai[10] - 0.2 Ai[11] - 0.2 Ai[12] - 0.2 Ai[13]
   - 0.2 Ai[14] - 0.2 Ai[15] - 0.2 Ai[16] - 0.2 Ai[17] - 0.2 Ai[18]
   - 0.2 Ai[19] - 0.2 Ai[20] - 0.2 Ai[21] - 0.2 Ai[22] - 0.2 Ai[23] <= 0
 Individual_Crop_Limit_-_i__4: - 0.2 Ai[0] - 0.2 Ai[1] - 0.2 Ai[2]
   - 0.2 Ai[3] + 0.8 Ai[4] - 0.2 Ai[5] - 0.2 Ai[6] - 0.2 Ai[7] - 0.2 Ai[8]
   - 0.2 Ai[9] - 0.2 Ai[10] - 0.2 Ai[11] - 0.2 Ai[12] - 0.2 Ai[13]
   - 0.2 Ai[14] - 0.2 Ai[15] - 0.2 Ai[16] - 0.2 Ai[17] - 0.2 Ai[18]
   - 0.2 Ai[19] - 0.2 Ai[20] - 0.2 Ai[21] - 0.2 Ai[22] - 0.2 Ai[23] <= 0
 Individual_Crop_Limit_-_i__5: - 0.2 Ai[0] - 0.2 Ai[1] - 0.2 Ai[2]
   - 0.2 Ai[3] - 0.2 Ai[4] + 0.8 Ai[5] - 0.2 Ai[6] - 0.2 Ai[7] - 0.2 Ai[8]
   - 0.2 Ai[9] - 0.2 Ai[10] - 0.2 Ai[11] - 0.2 Ai[12] - 0.2 Ai[13]
   - 0.2 Ai[14] - 0.2 Ai[15] - 0.2 Ai[16] - 0.2 Ai[17] - 0.2 Ai[18]
   - 0.2 Ai[19] - 0.2 Ai[20] - 0.2 Ai[21] - 0.2 Ai[22] - 0.2 Ai[23] <= 0
 Individual_Crop_Limit_-_i__6: - 0.2 Ai[0] - 0.2 Ai[1] - 0.2 Ai[2]
   - 0.2 Ai[3] - 0.2 Ai[4] - 0.2 Ai[5] + 0.8 Ai[6] - 0.2 Ai[7] - 0.2 Ai[8]
   - 0.2 Ai[9] - 0.2 Ai[10] - 0.2 Ai[11] - 0.2 Ai[12] - 0.2 Ai[13]
   - 0.2 Ai[14] - 0.2 Ai[15] - 0.2 Ai[16] - 0.2 Ai[17] - 0.2 Ai[18]
   - 0.2 Ai[19] - 0.2 Ai[20] - 0.2 Ai[21] - 0.2 Ai[22] - 0.2 Ai[23] <= 0
 Individual_Crop_Limit_-_i__7: - 0.2 Ai[0] - 0.2 Ai[1] - 0.2 Ai[2]
   - 0.2 Ai[3] - 0.2 Ai[4] - 0.2 Ai[5] - 0.2 Ai[6] + 0.8 Ai[7] - 0.2 Ai[8]
   - 0.2 Ai[9] - 0.2 Ai[10] - 0.2 Ai[11] - 0.2 Ai[12] - 0.2 Ai[13]
   - 0.2 Ai[14] - 0.2 Ai[15] - 0.2 Ai[16] - 0.2 Ai[17] - 0.2 Ai[18]
   - 0.2 Ai[19] - 0.2 Ai[20] - 0.2 Ai[21] - 0.2 Ai[22] - 0.2 Ai[23] <= 0
 Individual_Crop_Limit_-_i__8: - 0.2 Ai[0] - 0.2 Ai[1] - 0.2 Ai[2]
   - 0.2 Ai[3] - 0.2 Ai[4] - 0.2 Ai[5] - 0.2 Ai[6] - 0.2 Ai[7] + 0.8 Ai[8]
   - 0.2 Ai[9] - 0.2 Ai[10] - 0.2 Ai[11] - 0.2 Ai[12] - 0.2 Ai[13]
   - 0.2 Ai[14] - 0.2 Ai[15] - 0.2 Ai[16] - 0.2 Ai[17] - 0.2 Ai[18]
   - 0.2 Ai[19] - 0.2 Ai[20] - 0.2 Ai[21] - 0.2 Ai[22] - 0.2 Ai[23] <= 0
 Individual_Crop_Limit_-_i__9: - 0.2 Ai[0] - 0.2 Ai[1] - 0.2 Ai[2]
   - 0.2 Ai[3] - 0.2 Ai[4] - 0.2 Ai[5] - 0.2 Ai[6] - 0.2 Ai[7] - 0.2 Ai[8]
   + 0.8 Ai[9] - 0.2 Ai[10] - 0.2 Ai[11] - 0.2 Ai[12] - 0.2 Ai[13]
   - 0.2 Ai[14] - 0.2 Ai[15] - 0.2 Ai[16] - 0.2 Ai[17] - 0.2 Ai[18]
   - 0.2 Ai[19] - 0.2 Ai[20] - 0.2 Ai[21] - 0.2 Ai[22] - 0.2 Ai[23] <= 0
 Individual_Crop_Limit_-_i__10: - 0.2 Ai[0] - 0.2 Ai[1] - 0.2 Ai[2]
   - 0.2 Ai[3] - 0.2 Ai[4] - 0.2 Ai[5] - 0.2 Ai[6] - 0.2 Ai[7] - 0.2 Ai[8]
   - 0.2 Ai[9] + 0.8 Ai[10] - 0.2 Ai[11] - 0.2 Ai[12] - 0.2 Ai[13]
   - 0.2 Ai[14] - 0.2 Ai[15] - 0.2 Ai[16] - 0.2 Ai[17] - 0.2 Ai[18]
   - 0.2 Ai[19] - 0.2 Ai[20] - 0.2 Ai[21] - 0.2 Ai[22] - 0.2 Ai[23] <= 0
 Individual_Crop_Limit_-_i__11: - 0.2 Ai[0] - 0.2 Ai[1] - 0.2 Ai[2]
   - 0.2 Ai[3] - 0.2 Ai[4] - 0.2 Ai[5] - 0.2 Ai[6] - 0.2 Ai[7] - 0.2 Ai[8]
   - 0.2 Ai[9] - 0.2 Ai[10] + 0.8 Ai[11] - 0.2 Ai[12] - 0.2 Ai[13]
   - 0.2 Ai[14] - 0.2 Ai[15] - 0.2 Ai[16] - 0.2 Ai[17] - 0.2 Ai[18]
   - 0.2 Ai[19] - 0.2 Ai[20] - 0.2 Ai[21] - 0.2 Ai[22] - 0.2 Ai[23] <= 0
 Individual_Crop_Limit_-_i__12: - 0.2 Ai[0] - 0.2 Ai[1] - 0.2 Ai[2]
   - 0.2 Ai[3] - 0.2 Ai[4] - 0.2 Ai[5] - 0.2 Ai[6] - 0.2 Ai[7] - 0.2 Ai[8]
   - 0.2 Ai[9] - 0.2 Ai[10] - 0.2 Ai[11] + 0.8 Ai[12] - 0.2 Ai[13]
   - 0.2 Ai[14] - 0.2 Ai[15] - 0.2 Ai[16] - 0.2 Ai[17] - 0.2 Ai[18]
   - 0.2 Ai[19] - 0.2 Ai[20] - 0.2 Ai[21] - 0.2 Ai[22] - 0.2 Ai[23] <= 0
 Individual_Crop_Limit_-_i__13: - 0.2 Ai[0] - 0.2 Ai[1] - 0.2 Ai[2]
   - 0.2 Ai[3] - 0.2 Ai[4] - 0.2 Ai[5] - 0.2 Ai[6] - 0.2 Ai[7] - 0.2 Ai[8]
   - 0.2 Ai[9] - 0.2 Ai[10] - 0.2 Ai[11] - 0.2 Ai[12] + 0.8 Ai[13]
   - 0.2 Ai[14] - 0.2 Ai[15] - 0.2 Ai[16] - 0.2 Ai[17] - 0.2 Ai[18]
   - 0.2 Ai[19] - 0.2 Ai[20] - 0.2 Ai[21] - 0.2 Ai[22] - 0.2 Ai[23] <= 0
 Individual_Crop_Limit_-_i__14: - 0.2 Ai[0] - 0.2 Ai[1] - 0.2 Ai[2]
   - 0.2 Ai[3] - 0.2 Ai[4] - 0.2 Ai[5] - 0.2 Ai[6] - 0.2 Ai[7] - 0.2 Ai[8]
   - 0.2 Ai[9] - 0.2 Ai[10] - 0.2 Ai[11] - 0.2 Ai[12] - 0.2 Ai[13]
   + 0.8 Ai[14] - 0.2 Ai[15] - 0.2 Ai[16] - 0.2 Ai[17] - 0.2 Ai[18]
   - 0.2 Ai[19] - 0.2 Ai[20] - 0.2 Ai[21] - 0.2 Ai[22] - 0.2 Ai[23] <= 0
 Individual_Crop_Limit_-_i__15: - 0.2 Ai[0] - 0.2 Ai[1] - 0.2 Ai[2]
   - 0.2 Ai[3] - 0.2 Ai[4] - 0.2 Ai[5] - 0.2 Ai[6] - 0.2 Ai[7] - 0.2 Ai[8]
   - 0.2 Ai[9] - 0.2 Ai[10] - 0.2 Ai[11] - 0.2 Ai[12] - 0.2 Ai[13]
   - 0.2 Ai[14] + 0.8 Ai[15] - 0.2 Ai[16] - 0.2 Ai[17] - 0.2 Ai[18]
   - 0.2 Ai[19] - 0.2 Ai[20] - 0.2 Ai[21] - 0.2 Ai[22] - 0.2 Ai[23] <= 0
 Individual_Crop_Limit_-_i__16: - 0.2 Ai[0] - 0.2 Ai[1] - 0.2 Ai[2]
   - 0.2 Ai[3] - 0.2 Ai[4] - 0.2 Ai[5] - 0.2 Ai[6] - 0.2 Ai[7] - 0.2 Ai[8]
   - 0.2 Ai[9] - 0.2 Ai[10] - 0.2 Ai[11] - 0.2 Ai[12] - 0.2 Ai[13]
   - 0.2 Ai[14] - 0.2 Ai[15] + 0.8 Ai[16] - 0.2 Ai[17] - 0.2 Ai[18]
   - 0.2 Ai[19] - 0.2 Ai[20] - 0.2 Ai[21] - 0.2 Ai[22] - 0.2 Ai[23] <= 0
 Individual_Crop_Limit_-_i__17: - 0.2 Ai[0] - 0.2 Ai[1] - 0.2 Ai[2]
   - 0.2 Ai[3] - 0.2 Ai[4] - 0.2 Ai[5] - 0.2 Ai[6] - 0.2 Ai[7] - 0.2 Ai[8]
   - 0.2 Ai[9] - 0.2 Ai[10] - 0.2 Ai[11] - 0.2 Ai[12] - 0.2 Ai[13]
   - 0.2 Ai[14] - 0.2 Ai[15] - 0.2 Ai[16] + 0.8 Ai[17] - 0.2 Ai[18]
   - 0.2 Ai[19] - 0.2 Ai[20] - 0.2 Ai[21] - 0.2 Ai[22] - 0.2 Ai[23] <= 0
 Individual_Crop_Limit_-_i__18: - 0.2 Ai[0] - 0.2 Ai[1] - 0.2 Ai[2]
   - 0.2 Ai[3] - 0.2 Ai[4] - 0.2 Ai[5] - 0.2 Ai[6] - 0.2 Ai[7] - 0.2 Ai[8]
   - 0.2 Ai[9] - 0.2 Ai[10] - 0.2 Ai[11] - 0.2 Ai[12] - 0.2 Ai[13]
   - 0.2 Ai[14] - 0.2 Ai[15] - 0.2 Ai[16] - 0.2 Ai[17] + 0.8 Ai[18]
   - 0.2 Ai[19] - 0.2 Ai[20] - 0.2 Ai[21] - 0.2 Ai[22] - 0.2 Ai[23] <= 0
 Individual_Crop_Limit_-_i__19: - 0.2 Ai[0] - 0.2 Ai[1] - 0.2 Ai[2]
   - 0.2 Ai[3] - 0.2 Ai[4] - 0.2 Ai[5] - 0.2 Ai[6] - 0.2 Ai[7] - 0.2 Ai[8]
   - 0.2 Ai[9] - 0.2 Ai[10] - 0.2 Ai[11] - 0.2 Ai[12] - 0.2 Ai[13]
   - 0.2 Ai[14] - 0.2 Ai[15] - 0.2 Ai[16] - 0.2 Ai[17] - 0.2 Ai[18]
   + 0.8 Ai[19] - 0.2 Ai[20] - 0.2 Ai[21] - 0.2 Ai[22] - 0.2 Ai[23] <= 0
 Individual_Crop_Limit_-_i__20: - 0.2 Ai[0] - 0.2 Ai[1] - 0.2 Ai[2]
   - 0.2 Ai[3] - 0.2 Ai[4] - 0.2 Ai[5] - 0.2 Ai[6] - 0.2 Ai[7] - 0.2 Ai[8]
   - 0.2 Ai[9] - 0.2 Ai[10] - 0.2 Ai[11] - 0.2 Ai[12] - 0.2 Ai[13]
   - 0.2 Ai[14] - 0.2 Ai[15] - 0.2 Ai[16] - 0.2 Ai[17] - 0.2 Ai[18]
   - 0.2 Ai[19] + 0.8 Ai[20] - 0.2 Ai[21] - 0.2 Ai[22] - 0.2 Ai[23] <= 0
 Individual_Crop_Limit_-_i__21: - 0.2 Ai[0] - 0.2 Ai[1] - 0.2 Ai[2]
   - 0.2 Ai[3] - 0.2 Ai[4] - 0.2 Ai[5] - 0.2 Ai[6] - 0.2 Ai[7] - 0.2 Ai[8]
   - 0.2 Ai[9] - 0.2 Ai[10] - 0.2 Ai[11] - 0.2 Ai[12] - 0.2 Ai[13]
   - 0.2 Ai[14] - 0.2 Ai[15] - 0.2 Ai[16] - 0.2 Ai[17] - 0.2 Ai[18]
   - 0.2 Ai[19] - 0.2 Ai[20] + 0.8 Ai[21] - 0.2 Ai[22] - 0.2 Ai[23] <= 0
 Individual_Crop_Limit_-_i__22: - 0.2 Ai[0] - 0.2 Ai[1] - 0.2 Ai[2]
   - 0.2 Ai[3] - 0.2 Ai[4] - 0.2 Ai[5] - 0.2 Ai[6] - 0.2 Ai[7] - 0.2 Ai[8]
   - 0.2 Ai[9] - 0.2 Ai[10] - 0.2 Ai[11] - 0.2 Ai[12] - 0.2 Ai[13]
   - 0.2 Ai[14] - 0.2 Ai[15] - 0.2 Ai[16] - 0.2 Ai[17] - 0.2 Ai[18]
   - 0.2 Ai[19] - 0.2 Ai[20] - 0.2 Ai[21] + 0.8 Ai[22] - 0.2 Ai[23] <= 0
 Individual_Crop_Limit_-_i__23: - 0.2 Ai[0] - 0.2 Ai[1] - 0.2 Ai[2]
   - 0.2 Ai[3] - 0.2 Ai[4] - 0.2 Ai[5] - 0.2 Ai[6] - 0.2 Ai[7] - 0.2 Ai[8]
   - 0.2 Ai[9] - 0.2 Ai[10] - 0.2 Ai[11] - 0.2 Ai[12] - 0.2 Ai[13]
   - 0.2 Ai[14] - 0.2 Ai[15] - 0.2 Ai[16] - 0.2 Ai[17] - 0.2 Ai[18]
   - 0.2 Ai[19] - 0.2 Ai[20] - 0.2 Ai[21] - 0.2 Ai[22] + 0.8 Ai[23] <= 0
Bounds
 Lminus[0] <= 10000
 Lplus[0] <= 10000
 Ai[0] <= 10000
 Ai[1] <= 10000
 Ai[2] <= 10000
 Ai[3] <= 10000
 Ai[4] <= 10000
 Ai[5] <= 10000
 Ai[6] <= 10000
 Ai[7] <= 10000
 Ai[8] <= 10000
 Ai[9] <= 10000
 Ai[10] <= 10000
 Ai[11] <= 10000
 Ai[12] <= 10000
 Ai[13] <= 10000
 Ai[14] <= 10000
 Ai[15] <= 10000
 Ai[16] <= 10000
 Ai[17] <= 10000
 Ai[18] <= 10000
 Ai[19] <= 10000
 Ai[20] <= 10000
 Ai[21] <= 10000
 Ai[22] <= 10000
 Ai[23] <= 10000
End
